--- Job CVaR_03MAX.gms Start 12/05/19 22:37:35 28.2.0 r750fa45 DEX-DEG x86 64bit/Mac OS X
--- GAMS Parameters defined
    Input /Users/cicada/Documents/DTU/OF/final/CVaR_03MAX.gms
    PageSize 0
    ScrDir /Users/cicada/Documents/DTU/OF/final/225e/
    SysDir /Applications/GAMS28.2/sysdir/
    LogOption 3
    ErrMsg 1
    ErrorLog 99
    IDE 1
    LstTitleLeftAligned 1
GAMS 28.2.0   Copyright (C) 1987-2019 GAMS Development. All rights reserved
Licensee: Course License Fall 2019                       G190805/0001AO-GEN
          Technical University of Denmark, Management Engineering    DCE146
          License for teaching and research at degree granting institutions
          License Admin: Thomas Stidsen, thst@man.dtu.dk                   
--- Starting compilation
--- CVaR_03MAX.gms(26) 2 Mb
--- GDXin=/Users/cicada/Documents/DTU/OF/final/RScen.gdx
--- CVaR_03MAX.gms(27) 72 Mb
--- CVaR_03MAX.gms(27) 93 Mb
--- CVaR_03MAX.gms(27) 167 Mb
--- CVaR_03MAX.gms(27) 186 Mb
--- CVaR_03MAX.gms(27) 260 Mb
--- CVaR_03MAX.gms(27) 278 Mb
--- CVaR_03MAX.gms(52) 278 Mb

--- GDXin=/Users/cicada/Documents/DTU/OF/final/Targets_new.gdx
--- CVaR_03MAX.gms(268) 278 Mb
--- Starting execution: elapsed 0:00:00.853
--- CVaR_03MAX.gms(71) 279 Mb
--- CVaR_03MAX.gms(71) 340 Mb
--- CVaR_03MAX.gms(71) 361 Mb
--- CVaR_03MAX.gms(71) 459 Mb
--- CVaR_03MAX.gms(71) 481 Mb
--- CVaR_03MAX.gms(71) 481 Mb
--- CVaR_03MAX.gms(71) 482 Mb
--- CVaR_03MAX.gms(197) 483 Mb

--- Generating MIP model CVaRModel
--- CVaR_03MAX.gms(199) 485 Mb
---   1,045 rows  1,224 columns  48,236 non-zeroes
---   180 discrete-columns
--- Executing CPLEX: elapsed 0:00:03.436

IBM ILOG CPLEX   28.2.0 r750fa45 Released Aug 19, 2019 DEG x86 64bit/Mac OS X 
--- GAMS/Cplex licensed for continuous and discrete problems.
Cplex 12.9.0.0

Reading data...
Starting Cplex...
Space for names approximately 0.06 Mb
Use option 'names no' to turn use of names off
CPXPARAM_Advance                                 0
CPXPARAM_Threads                                 1
CPXPARAM_Parallel                                1
CPXPARAM_MIP_Display                             4
CPXPARAM_Simplex_Limits_Iterations               2000000000
CPXPARAM_TimeLimit                               1000
CPXPARAM_Tune_TimeLimit                          200
CPXPARAM_MIP_Tolerances_AbsMIPGap                0
CPXPARAM_MIP_Tolerances_MIPGap                   0.10000000000000001
CPXPARAM_WorkDir                                 "/Users/cicada/Documents/DTU/OF/final/225e/"
Tried aggregator 2 times.
MIP Presolve eliminated 3 rows and 3 columns.
MIP Presolve modified 45000 coefficients.
Aggregator did 250 substitutions.
Reduced MIP has 792 rows, 971 columns, and 46941 nonzeros.
Reduced MIP has 180 binaries, 0 generals, 0 SOSs, and 0 indicators.
Presolve time = 0.05 sec. (130.20 ticks)
Found incumbent of value 96681.368028 after 0.07 sec. (142.92 ticks)
Probing time = 0.00 sec. (1.27 ticks)
Tried aggregator 1 time.
Reduced MIP has 792 rows, 971 columns, and 46941 nonzeros.
Reduced MIP has 180 binaries, 0 generals, 0 SOSs, and 0 indicators.
Presolve time = 0.03 sec. (12.90 ticks)
Probing time = 0.00 sec. (1.27 ticks)
MIP emphasis: balance optimality and feasibility.
MIP search method: dynamic search.
Parallel mode: none, using 1 thread.
Tried aggregator 1 time.
No LP presolve or aggregator reductions.
Presolve time = 0.00 sec. (2.70 ticks)
Initializing dual steep norms . . .

Iteration log . . .
Iteration:     1   Dual objective     =        101594.087236
Root relaxation solution time = 0.01 sec. (21.91 ticks)

        Nodes                                         Cuts/
   Node  Left     Objective  IInf  Best Integer    Best Bound    ItCnt     Gap

*     0+    0                        96681.3680  3611094.9425              --- 
Found incumbent of value 96681.368028 after 0.12 sec. (186.19 ticks)
      0     0   101281.8413     4    96681.3680   101281.8413       52    4.76%

Root node processing (before b&c):
  Real time             =    0.12 sec. (186.83 ticks)
Sequential b&c:
  Real time             =    0.00 sec. (0.00 ticks)
                          ------------
Total (root+branch&cut) =    0.12 sec. (186.83 ticks)
MIP status(102): integer optimal, tolerance
Cplex Time: 0.12sec (det. 186.84 ticks)
Fixing integer variables, and solving final LP...
CPXPARAM_Advance                                 2
CPXPARAM_Threads                                 1
CPXPARAM_Parallel                                1
CPXPARAM_MIP_Display                             4
CPXPARAM_Simplex_Limits_Iterations               2000000000
CPXPARAM_TimeLimit                               1000
CPXPARAM_Tune_TimeLimit                          200
CPXPARAM_MIP_Tolerances_AbsMIPGap                0
CPXPARAM_MIP_Tolerances_MIPGap                   0.10000000000000001
CPXPARAM_WorkDir                                 "/Users/cicada/Documents/DTU/OF/final/225e/"
Tried aggregator 1 time.
LP Presolve eliminated 363 rows and 183 columns.
Aggregator did 250 substitutions.
Reduced LP has 432 rows, 791 columns, and 46471 nonzeros.
Presolve time = 0.03 sec. (22.08 ticks)
Initializing dual steep norms . . .

Iteration log . . .
Iteration:     1   Dual objective     =         97994.087236
Fixed MIP status(1): optimal
Cplex Time: 0.04sec (det. 49.46 ticks)

Solution satisfies tolerances.

MIP Solution:        96681.368028    (52 iterations, 0 nodes)
Final Solve:         97781.838333    (31 iterations)

Best possible:      101281.841333
Absolute gap:         4600.473305
Relative gap:            0.045422

--- Restarting execution
--- CVaR_03MAX.gms(199) 280 Mb
--- Reading solution for model CVaRModel
--- Executing after solve: elapsed 0:00:05.069
--- CVaR_03MAX.gms(235) 281 Mb
--- Generating MIP model RevisionCVaRModel
--- CVaR_03MAX.gms(246) 285 Mb
--- LOOPS p = p2
---   1,225 rows  1,584 columns  48,956 non-zeroes
---   180 discrete-columns
--- Executing CPLEX: elapsed 0:00:05.121

IBM ILOG CPLEX   28.2.0 r750fa45 Released Aug 19, 2019 DEG x86 64bit/Mac OS X 
--- GAMS/Cplex licensed for continuous and discrete problems.
Cplex 12.9.0.0

Reading data...
Starting Cplex...
Space for names approximately 0.07 Mb
Use option 'names no' to turn use of names off
CPXPARAM_Advance                                 2
CPXPARAM_Threads                                 1
CPXPARAM_Parallel                                1
CPXPARAM_MIP_Display                             4
CPXPARAM_Simplex_Limits_Iterations               2000000000
CPXPARAM_TimeLimit                               1000
CPXPARAM_Tune_TimeLimit                          200
CPXPARAM_MIP_Tolerances_AbsMIPGap                0
CPXPARAM_MIP_Tolerances_MIPGap                   0.10000000000000001
CPXPARAM_WorkDir                                 "/Users/cicada/Documents/DTU/OF/final/225e/"
Tried aggregator 2 times.
MIP Presolve eliminated 3 rows and 183 columns.
MIP Presolve modified 45000 coefficients.
Aggregator did 430 substitutions.
Reduced MIP has 792 rows, 971 columns, and 46941 nonzeros.
Reduced MIP has 180 binaries, 0 generals, 0 SOSs, and 0 indicators.
Presolve time = 0.05 sec. (131.86 ticks)
Found incumbent of value 101453.024155 after 0.06 sec. (145.17 ticks)
Probing time = 0.00 sec. (1.27 ticks)
Tried aggregator 1 time.
Reduced MIP has 792 rows, 971 columns, and 46941 nonzeros.
Reduced MIP has 180 binaries, 0 generals, 0 SOSs, and 0 indicators.
Presolve time = 0.03 sec. (12.90 ticks)
Probing time = 0.00 sec. (1.27 ticks)
MIP emphasis: balance optimality and feasibility.
MIP search method: dynamic search.
Parallel mode: none, using 1 thread.
Tried aggregator 1 time.
No LP presolve or aggregator reductions.
Presolve time = 0.00 sec. (2.70 ticks)
Initializing dual steep norms . . .

Iteration log . . .
Iteration:     1   Dual objective     =        107177.696866
Root relaxation solution time = 0.01 sec. (20.54 ticks)

        Nodes                                         Cuts/
   Node  Left     Objective  IInf  Best Integer    Best Bound    ItCnt     Gap

*     0+    0                       101453.0242  3633800.8655              --- 
Found incumbent of value 101453.024155 after 0.11 sec. (187.13 ticks)
      0     0   106858.1556     5   101453.0242   106858.1556       40    5.33%

Root node processing (before b&c):
  Real time             =    0.11 sec. (187.78 ticks)
Sequential b&c:
  Real time             =    0.00 sec. (0.00 ticks)
                          ------------
Total (root+branch&cut) =    0.11 sec. (187.78 ticks)
MIP status(102): integer optimal, tolerance
Cplex Time: 0.11sec (det. 187.78 ticks)
Fixing integer variables, and solving final LP...
CPXPARAM_Advance                                 2
CPXPARAM_Threads                                 1
CPXPARAM_Parallel                                1
CPXPARAM_MIP_Display                             4
CPXPARAM_Simplex_Limits_Iterations               2000000000
CPXPARAM_TimeLimit                               1000
CPXPARAM_Tune_TimeLimit                          200
CPXPARAM_MIP_Tolerances_AbsMIPGap                0
CPXPARAM_MIP_Tolerances_MIPGap                   0.10000000000000001
CPXPARAM_WorkDir                                 "/Users/cicada/Documents/DTU/OF/final/225e/"
Tried aggregator 1 time.
LP Presolve eliminated 363 rows and 363 columns.
Aggregator did 430 substitutions.
Reduced LP has 432 rows, 791 columns, and 46471 nonzeros.
Presolve time = 0.03 sec. (22.75 ticks)
Initializing dual steep norms . . .

Iteration log . . .
Iteration:     1   Dual objective     =        103577.696866
Fixed MIP status(1): optimal
Cplex Time: 0.04sec (det. 49.37 ticks)

Solution satisfies tolerances.

MIP Solution:       101453.024155    (40 iterations, 0 nodes)
Final Solve:        103362.526258    (26 iterations)

Best possible:      106858.155611
Absolute gap:         5405.131456
Relative gap:            0.050582

--- Restarting execution
--- CVaR_03MAX.gms(246) 280 Mb
--- Reading solution for model RevisionCVaRModel
--- Executing after solve: elapsed 0:00:06.708
--- CVaR_03MAX.gms(235) 281 Mb
--- Generating MIP model RevisionCVaRModel
--- CVaR_03MAX.gms(246) 285 Mb
--- LOOPS p = p3
---   1,225 rows  1,584 columns  48,956 non-zeroes
---   180 discrete-columns
--- Executing CPLEX: elapsed 0:00:06.841

IBM ILOG CPLEX   28.2.0 r750fa45 Released Aug 19, 2019 DEG x86 64bit/Mac OS X 
--- GAMS/Cplex licensed for continuous and discrete problems.
Cplex 12.9.0.0

Reading data...
Starting Cplex...
Space for names approximately 0.07 Mb
Use option 'names no' to turn use of names off
CPXPARAM_Advance                                 2
CPXPARAM_Threads                                 1
CPXPARAM_Parallel                                1
CPXPARAM_MIP_Display                             4
CPXPARAM_Simplex_Limits_Iterations               2000000000
CPXPARAM_TimeLimit                               1000
CPXPARAM_Tune_TimeLimit                          200
CPXPARAM_MIP_Tolerances_AbsMIPGap                0
CPXPARAM_MIP_Tolerances_MIPGap                   0.10000000000000001
CPXPARAM_WorkDir                                 "/Users/cicada/Documents/DTU/OF/final/225e/"
Tried aggregator 2 times.
MIP Presolve eliminated 3 rows and 183 columns.
MIP Presolve modified 45000 coefficients.
Aggregator did 430 substitutions.
Reduced MIP has 792 rows, 971 columns, and 46941 nonzeros.
Reduced MIP has 180 binaries, 0 generals, 0 SOSs, and 0 indicators.
Presolve time = 0.05 sec. (131.87 ticks)
Found incumbent of value 103777.025518 after 0.06 sec. (145.18 ticks)
Probing time = 0.00 sec. (1.27 ticks)
Tried aggregator 1 time.
Reduced MIP has 792 rows, 971 columns, and 46941 nonzeros.
Reduced MIP has 180 binaries, 0 generals, 0 SOSs, and 0 indicators.
Presolve time = 0.03 sec. (12.90 ticks)
Probing time = 0.00 sec. (1.27 ticks)
MIP emphasis: balance optimality and feasibility.
MIP search method: dynamic search.
Parallel mode: none, using 1 thread.
Tried aggregator 1 time.
No LP presolve or aggregator reductions.
Presolve time = 0.00 sec. (2.70 ticks)
Initializing dual steep norms . . .

Iteration log . . .
Iteration:     1   Dual objective     =        109375.997261
Root relaxation solution time = 0.02 sec. (23.37 ticks)

        Nodes                                         Cuts/
   Node  Left     Objective  IInf  Best Integer    Best Bound    ItCnt     Gap

*     0+    0                       103777.0255  3637426.7393              --- 
Found incumbent of value 103777.025518 after 0.11 sec. (189.98 ticks)
      0     0   109173.5870     6   103777.0255   109173.5870       65    5.20%

Root node processing (before b&c):
  Real time             =    0.12 sec. (190.63 ticks)
Sequential b&c:
  Real time             =    0.00 sec. (0.00 ticks)
                          ------------
Total (root+branch&cut) =    0.12 sec. (190.63 ticks)
MIP status(102): integer optimal, tolerance
Cplex Time: 0.12sec (det. 190.63 ticks)
Fixing integer variables, and solving final LP...
CPXPARAM_Advance                                 2
CPXPARAM_Threads                                 1
CPXPARAM_Parallel                                1
CPXPARAM_MIP_Display                             4
CPXPARAM_Simplex_Limits_Iterations               2000000000
CPXPARAM_TimeLimit                               1000
CPXPARAM_Tune_TimeLimit                          200
CPXPARAM_MIP_Tolerances_AbsMIPGap                0
CPXPARAM_MIP_Tolerances_MIPGap                   0.10000000000000001
CPXPARAM_WorkDir                                 "/Users/cicada/Documents/DTU/OF/final/225e/"
Tried aggregator 1 time.
LP Presolve eliminated 363 rows and 363 columns.
Aggregator did 430 substitutions.
Reduced LP has 432 rows, 791 columns, and 46471 nonzeros.
Presolve time = 0.03 sec. (22.75 ticks)
Initializing dual steep norms . . .

Iteration log . . .
Iteration:     1   Dual objective     =        105775.997261
Fixed MIP status(1): optimal
Cplex Time: 0.04sec (det. 50.58 ticks)

Solution satisfies tolerances.

MIP Solution:       103777.025518    (65 iterations, 0 nodes)
Final Solve:        105680.278435    (35 iterations)

Best possible:      109173.587011
Absolute gap:         5396.561493
Relative gap:            0.049431

--- Restarting execution
--- CVaR_03MAX.gms(246) 280 Mb
--- Reading solution for model RevisionCVaRModel
--- Executing after solve: elapsed 0:00:08.422
--- CVaR_03MAX.gms(235) 281 Mb
--- Generating MIP model RevisionCVaRModel
--- CVaR_03MAX.gms(246) 285 Mb
--- LOOPS p = p4
---   1,225 rows  1,584 columns  48,956 non-zeroes
---   180 discrete-columns
--- Executing CPLEX: elapsed 0:00:08.551

IBM ILOG CPLEX   28.2.0 r750fa45 Released Aug 19, 2019 DEG x86 64bit/Mac OS X 
--- GAMS/Cplex licensed for continuous and discrete problems.
Cplex 12.9.0.0

Reading data...
Starting Cplex...
Space for names approximately 0.07 Mb
Use option 'names no' to turn use of names off
CPXPARAM_Advance                                 2
CPXPARAM_Threads                                 1
CPXPARAM_Parallel                                1
CPXPARAM_MIP_Display                             4
CPXPARAM_Simplex_Limits_Iterations               2000000000
CPXPARAM_TimeLimit                               1000
CPXPARAM_Tune_TimeLimit                          200
CPXPARAM_MIP_Tolerances_AbsMIPGap                0
CPXPARAM_MIP_Tolerances_MIPGap                   0.10000000000000001
CPXPARAM_WorkDir                                 "/Users/cicada/Documents/DTU/OF/final/225e/"
Tried aggregator 2 times.
MIP Presolve eliminated 3 rows and 183 columns.
MIP Presolve modified 45000 coefficients.
Aggregator did 430 substitutions.
Reduced MIP has 792 rows, 971 columns, and 46941 nonzeros.
Reduced MIP has 180 binaries, 0 generals, 0 SOSs, and 0 indicators.
Presolve time = 0.05 sec. (131.86 ticks)
Found incumbent of value 99604.019788 after 0.07 sec. (145.17 ticks)
Probing time = 0.00 sec. (1.27 ticks)
Tried aggregator 1 time.
Reduced MIP has 792 rows, 971 columns, and 46941 nonzeros.
Reduced MIP has 180 binaries, 0 generals, 0 SOSs, and 0 indicators.
Presolve time = 0.03 sec. (12.90 ticks)
Probing time = 0.00 sec. (1.27 ticks)
MIP emphasis: balance optimality and feasibility.
MIP search method: dynamic search.
Parallel mode: none, using 1 thread.
Tried aggregator 1 time.
No LP presolve or aggregator reductions.
Presolve time = 0.00 sec. (2.70 ticks)
Initializing dual steep norms . . .

Iteration log . . .
Iteration:     1   Dual objective     =        105269.844714
Root relaxation solution time = 0.01 sec. (21.31 ticks)

        Nodes                                         Cuts/
   Node  Left     Objective  IInf  Best Integer    Best Bound    ItCnt     Gap

*     0+    0                        99604.0198  3635987.3864              --- 
Found incumbent of value 99604.019788 after 0.12 sec. (187.91 ticks)
      0     0   105089.3267     3    99604.0198   105089.3267       49    5.51%

Root node processing (before b&c):
  Real time             =    0.12 sec. (188.56 ticks)
Sequential b&c:
  Real time             =    0.00 sec. (0.00 ticks)
                          ------------
Total (root+branch&cut) =    0.12 sec. (188.56 ticks)
MIP status(102): integer optimal, tolerance
Cplex Time: 0.12sec (det. 188.56 ticks)
Fixing integer variables, and solving final LP...
CPXPARAM_Advance                                 2
CPXPARAM_Threads                                 1
CPXPARAM_Parallel                                1
CPXPARAM_MIP_Display                             4
CPXPARAM_Simplex_Limits_Iterations               2000000000
CPXPARAM_TimeLimit                               1000
CPXPARAM_Tune_TimeLimit                          200
CPXPARAM_MIP_Tolerances_AbsMIPGap                0
CPXPARAM_MIP_Tolerances_MIPGap                   0.10000000000000001
CPXPARAM_WorkDir                                 "/Users/cicada/Documents/DTU/OF/final/225e/"
Tried aggregator 1 time.
LP Presolve eliminated 363 rows and 363 columns.
Aggregator did 430 substitutions.
Reduced LP has 432 rows, 791 columns, and 46471 nonzeros.
Presolve time = 0.04 sec. (22.75 ticks)
Initializing dual steep norms . . .

Iteration log . . .
Iteration:     1   Dual objective     =        101669.844714
Fixed MIP status(1): optimal
Cplex Time: 0.05sec (det. 49.25 ticks)

Solution satisfies tolerances.

MIP Solution:        99604.019788    (49 iterations, 0 nodes)
Final Solve:        101591.837736    (26 iterations)

Best possible:      105089.326710
Absolute gap:         5485.306922
Relative gap:            0.052197

--- Restarting execution
--- CVaR_03MAX.gms(246) 280 Mb
--- Reading solution for model RevisionCVaRModel
--- Executing after solve: elapsed 0:00:10.231
--- CVaR_03MAX.gms(235) 281 Mb
--- Generating MIP model RevisionCVaRModel
--- CVaR_03MAX.gms(246) 285 Mb
--- LOOPS p = p5
---   1,225 rows  1,584 columns  48,956 non-zeroes
---   180 discrete-columns
--- Executing CPLEX: elapsed 0:00:10.360

IBM ILOG CPLEX   28.2.0 r750fa45 Released Aug 19, 2019 DEG x86 64bit/Mac OS X 
--- GAMS/Cplex licensed for continuous and discrete problems.
Cplex 12.9.0.0

Reading data...
Starting Cplex...
Space for names approximately 0.07 Mb
Use option 'names no' to turn use of names off
CPXPARAM_Advance                                 2
CPXPARAM_Threads                                 1
CPXPARAM_Parallel                                1
CPXPARAM_MIP_Display                             4
CPXPARAM_Simplex_Limits_Iterations               2000000000
CPXPARAM_TimeLimit                               1000
CPXPARAM_Tune_TimeLimit                          200
CPXPARAM_MIP_Tolerances_AbsMIPGap                0
CPXPARAM_MIP_Tolerances_MIPGap                   0.10000000000000001
CPXPARAM_WorkDir                                 "/Users/cicada/Documents/DTU/OF/final/225e/"
Tried aggregator 2 times.
MIP Presolve eliminated 3 rows and 183 columns.
MIP Presolve modified 45000 coefficients.
Aggregator did 430 substitutions.
Reduced MIP has 792 rows, 971 columns, and 46941 nonzeros.
Reduced MIP has 180 binaries, 0 generals, 0 SOSs, and 0 indicators.
Presolve time = 0.05 sec. (131.86 ticks)
Found incumbent of value 104176.736553 after 0.07 sec. (145.17 ticks)
Probing time = 0.00 sec. (1.27 ticks)
Tried aggregator 1 time.
Reduced MIP has 792 rows, 971 columns, and 46941 nonzeros.
Reduced MIP has 180 binaries, 0 generals, 0 SOSs, and 0 indicators.
Presolve time = 0.03 sec. (12.96 ticks)
Probing time = 0.00 sec. (1.27 ticks)
MIP emphasis: balance optimality and feasibility.
MIP search method: dynamic search.
Parallel mode: none, using 1 thread.
Tried aggregator 1 time.
No LP presolve or aggregator reductions.
Presolve time = 0.00 sec. (2.70 ticks)
Initializing dual steep norms . . .

Iteration log . . .
Iteration:     1   Dual objective     =        109676.275150
Root relaxation solution time = 0.01 sec. (17.90 ticks)

        Nodes                                         Cuts/
   Node  Left     Objective  IInf  Best Integer    Best Bound    ItCnt     Gap

*     0+    0                       104176.7366  3628649.9389              --- 
Found incumbent of value 104176.736553 after 0.11 sec. (184.55 ticks)
      0     0   109569.3531     1   104176.7366   109569.3531       18    5.18%

Root node processing (before b&c):
  Real time             =    0.11 sec. (185.20 ticks)
Sequential b&c:
  Real time             =    0.00 sec. (0.00 ticks)
                          ------------
Total (root+branch&cut) =    0.11 sec. (185.20 ticks)
MIP status(102): integer optimal, tolerance
Cplex Time: 0.11sec (det. 185.20 ticks)
Fixing integer variables, and solving final LP...
CPXPARAM_Advance                                 2
CPXPARAM_Threads                                 1
CPXPARAM_Parallel                                1
CPXPARAM_MIP_Display                             4
CPXPARAM_Simplex_Limits_Iterations               2000000000
CPXPARAM_TimeLimit                               1000
CPXPARAM_Tune_TimeLimit                          200
CPXPARAM_MIP_Tolerances_AbsMIPGap                0
CPXPARAM_MIP_Tolerances_MIPGap                   0.10000000000000001
CPXPARAM_WorkDir                                 "/Users/cicada/Documents/DTU/OF/final/225e/"
Tried aggregator 1 time.
LP Presolve eliminated 363 rows and 363 columns.
Aggregator did 430 substitutions.
Reduced LP has 432 rows, 791 columns, and 46471 nonzeros.
Presolve time = 0.03 sec. (22.75 ticks)
Initializing dual steep norms . . .

Iteration log . . .
Iteration:     1   Dual objective     =        106076.275150
Fixed MIP status(1): optimal
Cplex Time: 0.04sec (det. 46.82 ticks)

Solution satisfies tolerances.

MIP Solution:       104176.736553    (18 iterations, 0 nodes)
Final Solve:        106076.275150    (9 iterations)

Best possible:      109569.353054
Absolute gap:         5392.616501
Relative gap:            0.049216

--- Restarting execution
--- CVaR_03MAX.gms(246) 280 Mb
--- Reading solution for model RevisionCVaRModel
--- Executing after solve: elapsed 0:00:11.927
--- CVaR_03MAX.gms(235) 281 Mb
*** Status: Normal completion
--- Job CVaR_03MAX.gms Stop 12/05/19 22:37:47 elapsed 0:00:12.006
